48 60
6 5 1
1 6 1
2 7 1
8 2 2
3 2 1
1 8 1
1 5 2
5 4 1
10 5 1
4 4 1
9 1 1
10 7 1
8 8 1
3 3 1
2 8 2
7 2 2
7 3 2
2 5 1
4 7 1
2 4 1
8 5 1
8 10 2
4 10 1
10 2 2
4 3 1
10 10 2
3 8 1
2 10 2
8 7 1
7 9 2
9 3 1
6 8 1
2 6 1
4 6 1
6 7 2
3 9 1
3 7 2
6 2 1
3 1 1
7 10 1
4 1 1
5 5 1
5 6 1
3 5 1
7 7 1
2 1 1
10 3 1
1 3 1
10 10 
10 10 
10 10 
10 10 
10 10 
10 10 
10 10 
10 10 
10 10 
10 10 
10 10 
10 10 
10 10 
10 10 
10 10 
10 10 
10 10 
10 10 
10 10 
10 10 
10 10 
10 10 
10 10 
10 10 
10 10 
10 10 
10 10 
10 10 
10 10 
10 10 
10 10 
10 10 
10 10 
10 10 
10 10 
10 10 
10 10 
10 10 
10 10 
10 10 
10 10 
10 10 
10 10 
10 10 
10 10 
10 10 
10 10 
10 10 
10 10 
10 10 
10 10 
10 10 
10 10 
10 10 
10 10 
10 10 
10 10 
10 10 
10 10 
10 10 
